(set-logic QF_S)
(declare-fun var_0xINPUT_126837 () String)
(assert (and (= (len var_0xINPUT_126837) 0) (= (len var_0xINPUT_126837) 0) (not (= var_0xINPUT_126837 "L2e4ETpOua"))))
(check-sat var_0xINPUT_126837)